&INPUTHP
  iverbosity = 2
  nq1 = 2
  nq2 = 2
  nq3 = 2
  outdir = 'out'
  prefix = 'aiida'
/
